(set-info :smt-lib-version 2.6)
(set-logic QF_SLIA)
(set-info :source |
Generated by: Dmitry Blotsky1, Federico Mora, Murphy Berzish, Yunhui Zheng, Ifaz Kabir, Vijay Ganesh, Zhengyang Lu
Generated on: 2018-01-24
Generator: StringFuzz
Application: Evaluate string solvers
Target solver: Z3str3, CVC4, Z3str2, Norn
Publications: Blotsky, D., Mora, F., Berzish, M., Zheng, Y., Kabir, I., & Ganesh, V. (2018). Stringfuzz: A fuzzer for string solvers. In CAV 2018.
Description: new instance generated by StringFuzz, a modular string and regex fuzzer
|)
(set-info :license "https://creativecommons.org/licenses/by/4.0/")
(set-info :category "random")
(set-info :status unknown)

(declare-fun var0 () String)
(assert (str.in_re var0 (re.++ (re.union (re.union (str.to_re "00") (str.to_re "1")) (re.* (str.to_re "22"))) (re.++ (re.+ (re.union (str.to_re "33") (str.to_re "444"))) (re.++ (re.union (re.+ (str.to_re "5")) (re.* (str.to_re "66"))) (re.++ (re.* (re.* (str.to_re "777"))) (re.++ (re.* (re.* (str.to_re "8"))) (re.++ (re.union (re.+ (str.to_re "99")) (re.union (str.to_re "a") (str.to_re "bb"))) (re.++ (re.union (re.* (str.to_re "ccc")) (re.* (str.to_re "ddd"))) (re.++ (re.union (re.+ (str.to_re "ee")) (re.union (str.to_re "ff") (str.to_re "gg"))) (re.++ (re.union (re.+ (str.to_re "hh")) (re.* (str.to_re "ii"))) (re.++ (re.+ (re.* (str.to_re "jjj"))) (re.++ (re.union (re.+ (str.to_re "kkk")) (re.union (str.to_re "lll") (str.to_re "mm"))) (re.++ (re.union (re.+ (str.to_re "nn")) (re.union (str.to_re "oo") (str.to_re "pp"))) (re.++ (re.+ (re.+ (str.to_re "q"))) (re.++ (re.* (re.+ (str.to_re "rr"))) (re.++ (re.union (re.union (str.to_re "s") (str.to_re "ttt")) (re.union (str.to_re "u") (str.to_re "vv"))) (re.* (re.+ (str.to_re "ww"))))))))))))))))))))
(assert (not (str.in_re var0 (re.++ (re.* (re.+ (str.to_re "0"))) (re.++ (re.union (re.union (str.to_re "1") (str.to_re "22")) (re.union (str.to_re "3") (str.to_re "4"))) (re.++ (re.union (re.* (str.to_re "5")) (re.union (str.to_re "666") (str.to_re "77"))) (re.++ (re.union (re.+ (str.to_re "8")) (re.+ (str.to_re "999"))) (re.++ (re.+ (re.union (str.to_re "aa") (str.to_re "bb"))) (re.++ (re.+ (re.union (str.to_re "c") (str.to_re "d"))) (re.++ (re.* (re.union (str.to_re "eee") (str.to_re "fff"))) (re.++ (re.+ (re.+ (str.to_re "gg"))) (re.++ (re.* (re.+ (str.to_re "hh"))) (re.++ (re.* (re.* (str.to_re "iii"))) (re.++ (re.* (re.+ (str.to_re "jjj"))) (re.++ (re.* (re.+ (str.to_re "kkk"))) (re.++ (re.+ (re.* (str.to_re "l"))) (re.++ (re.+ (re.+ (str.to_re "m"))) (re.++ (re.+ (re.union (str.to_re "nn") (str.to_re "o"))) (re.union (re.+ (str.to_re "ppp")) (re.* (str.to_re "q")))))))))))))))))))))
(check-sat)
(exit)
